solution status: optimal solution found
objective value:                                 -420
Vr1                                                50 	(obj:0)
Vr3                                               100 	(obj:0)
Vr4                                               200 	(obj:0)
Vr5                                               300 	(obj:0)
Vr6                                                40 	(obj:0)
Vr7                                               380 	(obj:0)
Vr8                                               100 	(obj:0)
Vr9                                               250 	(obj:0)
Vr10                                              300 	(obj:0)
Vr11                                              420 	(obj:-1)
